40
1 0 2
2 0 3
2 1 1
3 0 3
3 1 1
3 2 3
4 0 1
4 1 1
4 2 3
4 3 1
5 0 1
5 1 2
5 2 2
5 3 2
5 4 3
6 0 2
6 1 1
6 2 2
6 3 3
6 4 1
6 5 1
7 0 3
7 1 3
7 2 2
7 3 2
7 4 3
7 5 2
7 6 3
8 0 1
8 1 3
8 2 1
8 3 3
8 4 3
8 5 2
8 6 1
8 7 3
9 0 1
9 1 1
9 2 1
9 3 3
9 4 1
9 5 2
9 6 3
9 7 2
9 8 3
10 0 2
10 1 3
10 2 1
10 3 2
10 4 1
10 5 3
10 6 2
10 7 2
10 8 3
10 9 2
11 0 1
11 1 3
11 2 1
11 3 2
11 4 2
11 5 2
11 6 1
11 7 1
11 8 3
11 9 1
11 10 2
12 0 3
12 1 2
12 2 2
12 3 1
12 4 2
12 5 1
12 6 2
12 7 3
12 8 2
12 9 2
12 10 3
12 11 1
13 0 2
13 1 2
13 2 3
13 3 3
13 4 3
13 5 3
13 6 1
13 7 1
13 8 3
13 9 3
13 10 1
13 11 2
13 12 1
14 0 3
14 1 3
14 2 1
14 3 1
14 4 1
14 5 3
14 6 2
14 7 2
14 8 1
14 9 2
14 10 1
14 11 1
14 12 3
14 13 2
15 0 3
15 1 2
15 2 2
15 3 3
15 4 1
15 5 3
15 6 3
15 7 3
15 8 2
15 9 3
15 10 3
15 11 3
15 12 3
15 13 1
15 14 3
16 0 2
16 1 1
16 2 1
16 3 2
16 4 1
16 5 3
16 6 3
16 7 1
16 8 1
16 9 2
16 10 1
16 11 2
16 12 1
16 13 2
16 14 2
16 15 3
17 0 1
17 1 3
17 2 2
17 3 2
17 4 3
17 5 3
17 6 1
17 7 2
17 8 1
17 9 1
17 10 3
17 11 3
17 12 2
17 13 2
17 14 3
17 15 3
17 16 1
18 0 2
18 1 1
18 2 1
18 3 1
18 4 2
18 5 1
18 6 3
18 7 1
18 8 3
18 9 3
18 10 2
18 11 3
18 12 1
18 13 2
18 14 1
18 15 1
18 16 2
18 17 1
19 0 2
19 1 2
19 2 2
19 3 3
19 4 3
19 5 2
19 6 3
19 7 1
19 8 1
19 9 2
19 10 1
19 11 3
19 12 1
19 13 1
19 14 2
19 15 1
19 16 1
19 17 2
19 18 1
20 0 2
20 1 1
20 2 1
20 3 2
20 4 3
20 5 1
20 6 2
20 7 3
20 8 2
20 9 1
20 10 2
20 11 2
20 12 2
20 13 1
20 14 1
20 15 3
20 16 2
20 17 2
20 18 1
20 19 1
21 0 3
21 1 2
21 2 3
21 3 3
21 4 2
21 5 3
21 6 1
21 7 1
21 8 1
21 9 2
21 10 3
21 11 1
21 12 1
21 13 3
21 14 1
21 15 1
21 16 3
21 17 2
21 18 1
21 19 2
21 20 1
22 0 2
22 1 1
22 2 2
22 3 3
22 4 3
22 5 2
22 6 3
22 7 2
22 8 3
22 9 3
22 10 2
22 11 1
22 12 2
22 13 2
22 14 2
22 15 3
22 16 3
22 17 3
22 18 2
22 19 1
22 20 1
22 21 1
23 0 1
23 1 1
23 2 2
23 3 3
23 4 2
23 5 3
23 6 2
23 7 1
23 8 3
23 9 2
23 10 1
23 11 3
23 12 1
23 13 1
23 14 1
23 15 2
23 16 3
23 17 3
23 18 1
23 19 1
23 20 1
23 21 2
23 22 3
24 0 1
24 1 1
24 2 2
24 3 3
24 4 1
24 5 2
24 6 3
24 7 2
24 8 1
24 9 2
24 10 2
24 11 2
24 12 1
24 13 3
24 14 1
24 15 3
24 16 3
24 17 2
24 18 1
24 19 1
24 20 1
24 21 1
24 22 1
24 23 3
25 0 3
25 1 1
25 2 3
25 3 2
25 4 1
25 5 2
25 6 1
25 7 1
25 8 3
25 9 3
25 10 3
25 11 3
25 12 2
25 13 2
25 14 1
25 15 2
25 16 3
25 17 2
25 18 1
25 19 2
25 20 2
25 21 1
25 22 3
25 23 2
25 24 3
26 0 3
26 1 1
26 2 3
26 3 2
26 4 3
26 5 1
26 6 2
26 7 1
26 8 3
26 9 2
26 10 2
26 11 3
26 12 3
26 13 2
26 14 3
26 15 1
26 16 1
26 17 2
26 18 2
26 19 2
26 20 1
26 21 2
26 22 2
26 23 1
26 24 3
26 25 1
27 0 1
27 1 2
27 2 2
27 3 1
27 4 1
27 5 1
27 6 3
27 7 1
27 8 1
27 9 2
27 10 3
27 11 2
27 12 1
27 13 1
27 14 3
27 15 2
27 16 2
27 17 3
27 18 1
27 19 1
27 20 3
27 21 2
27 22 2
27 23 2
27 24 2
27 25 1
27 26 3
28 0 1
28 1 1
28 2 3
28 3 1
28 4 1
28 5 3
28 6 1
28 7 1
28 8 3
28 9 2
28 10 3
28 11 3
28 12 2
28 13 2
28 14 3
28 15 1
28 16 3
28 17 3
28 18 3
28 19 1
28 20 2
28 21 2
28 22 1
28 23 3
28 24 3
28 25 2
28 26 3
28 27 1
29 0 2
29 1 1
29 2 3
29 3 1
29 4 2
29 5 2
29 6 3
29 7 3
29 8 2
29 9 1
29 10 2
29 11 3
29 12 3
29 13 3
29 14 2
29 15 1
29 16 3
29 17 2
29 18 1
29 19 3
29 20 3
29 21 2
29 22 3
29 23 1
29 24 3
29 25 3
29 26 3
29 27 2
29 28 2
30 0 3
30 1 3
30 2 1
30 3 1
30 4 3
30 5 3
30 6 1
30 7 3
30 8 1
30 9 1
30 10 3
30 11 2
30 12 3
30 13 2
30 14 1
30 15 3
30 16 3
30 17 2
30 18 3
30 19 2
30 20 2
30 21 1
30 22 3
30 23 2
30 24 1
30 25 2
30 26 2
30 27 3
30 28 1
30 29 3
31 0 2
31 1 1
31 2 3
31 3 2
31 4 2
31 5 1
31 6 1
31 7 3
31 8 3
31 9 1
31 10 1
31 11 3
31 12 1
31 13 1
31 14 3
31 15 2
31 16 2
31 17 1
31 18 1
31 19 3
31 20 1
31 21 2
31 22 1
31 23 2
31 24 3
31 25 3
31 26 2
31 27 3
31 28 1
31 29 3
31 30 3
32 0 1
32 1 1
32 2 1
32 3 2
32 4 3
32 5 3
32 6 3
32 7 3
32 8 1
32 9 3
32 10 1
32 11 1
32 12 3
32 13 1
32 14 1
32 15 1
32 16 1
32 17 2
32 18 3
32 19 2
32 20 3
32 21 3
32 22 1
32 23 3
32 24 1
32 25 3
32 26 2
32 27 3
32 28 3
32 29 1
32 30 2
32 31 2
33 0 2
33 1 1
33 2 2
33 3 1
33 4 2
33 5 1
33 6 3
33 7 1
33 8 3
33 9 1
33 10 2
33 11 1
33 12 3
33 13 2
33 14 3
33 15 1
33 16 2
33 17 1
33 18 2
33 19 3
33 20 3
33 21 3
33 22 2
33 23 1
33 24 3
33 25 1
33 26 3
33 27 2
33 28 1
33 29 2
33 30 1
33 31 3
33 32 2
34 0 3
34 1 3
34 2 1
34 3 2
34 4 2
34 5 1
34 6 1
34 7 2
34 8 3
34 9 3
34 10 3
34 11 2
34 12 3
34 13 2
34 14 3
34 15 3
34 16 2
34 17 1
34 18 2
34 19 2
34 20 1
34 21 2
34 22 3
34 23 3
34 24 1
34 25 2
34 26 3
34 27 3
34 28 1
34 29 1
34 30 3
34 31 2
34 32 2
34 33 1
35 0 2
35 1 3
35 2 3
35 3 3
35 4 1
35 5 3
35 6 3
35 7 3
35 8 2
35 9 3
35 10 3
35 11 3
35 12 3
35 13 3
35 14 3
35 15 3
35 16 1
35 17 3
35 18 1
35 19 1
35 20 1
35 21 2
35 22 3
35 23 3
35 24 2
35 25 3
35 26 1
35 27 1
35 28 3
35 29 3
35 30 1
35 31 2
35 32 1
35 33 2
35 34 3
36 0 1
36 1 2
36 2 1
36 3 3
36 4 3
36 5 1
36 6 1
36 7 3
36 8 3
36 9 1
36 10 2
36 11 3
36 12 2
36 13 3
36 14 1
36 15 2
36 16 3
36 17 2
36 18 2
36 19 2
36 20 2
36 21 1
36 22 3
36 23 1
36 24 1
36 25 1
36 26 3
36 27 2
36 28 3
36 29 3
36 30 1
36 31 2
36 32 1
36 33 2
36 34 2
36 35 3
37 0 2
37 1 2
37 2 1
37 3 3
37 4 3
37 5 3
37 6 2
37 7 1
37 8 3
37 9 1
37 10 3
37 11 2
37 12 2
37 13 2
37 14 2
37 15 2
37 16 3
37 17 1
37 18 2
37 19 1
37 20 1
37 21 2
37 22 3
37 23 3
37 24 3
37 25 3
37 26 1
37 27 3
37 28 2
37 29 2
37 30 2
37 31 1
37 32 2
37 33 2
37 34 2
37 35 1
37 36 1
38 0 3
38 1 3
38 2 3
38 3 3
38 4 2
38 5 3
38 6 2
38 7 1
38 8 1
38 9 2
38 10 1
38 11 2
38 12 2
38 13 3
38 14 2
38 15 2
38 16 2
38 17 2
38 18 2
38 19 2
38 20 1
38 21 2
38 22 1
38 23 1
38 24 3
38 25 3
38 26 1
38 27 2
38 28 2
38 29 1
38 30 2
38 31 3
38 32 1
38 33 3
38 34 3
38 35 2
38 36 2
38 37 2
39 0 2
39 1 2
39 2 2
39 3 1
39 4 3
39 5 3
39 6 2
39 7 1
39 8 1
39 9 3
39 10 2
39 11 2
39 12 1
39 13 2
39 14 2
39 15 1
39 16 3
39 17 3
39 18 1
39 19 1
39 20 2
39 21 3
39 22 1
39 23 1
39 24 1
39 25 1
39 26 3
39 27 3
39 28 2
39 29 3
39 30 2
39 31 2
39 32 3
39 33 2
39 34 1
39 35 1
39 36 1
39 37 1
39 38 2
